57
1 0 12
2 0 52
2 1 18
3 0 12
3 1 4
3 2 11
4 0 45
4 1 26
4 2 16
4 3 21
5 0 16
5 1 35
5 2 19
5 3 24
5 4 32
6 0 37
6 1 10
6 2 48
6 3 2
6 4 36
6 5 23
7 0 58
7 1 24
7 2 60
7 3 25
7 4 35
7 5 33
7 6 52
8 0 6
8 1 43
8 2 17
8 3 44
8 4 7
8 5 40
8 6 48
8 7 42
9 0 9
9 1 28
9 2 16
9 3 49
9 4 51
9 5 45
9 6 26
9 7 9
9 8 50
10 0 56
10 1 2
10 2 45
10 3 25
10 4 52
10 5 14
10 6 32
10 7 48
10 8 8
10 9 32
11 0 59
11 1 47
11 2 55
11 3 58
11 4 53
11 5 25
11 6 60
11 7 14
11 8 38
11 9 57
11 10 22
12 0 16
12 1 56
12 2 10
12 3 27
12 4 33
12 5 46
12 6 56
12 7 56
12 8 48
12 9 1
12 10 28
12 11 42
13 0 3
13 1 6
13 2 40
13 3 30
13 4 24
13 5 31
13 6 38
13 7 5
13 8 37
13 9 15
13 10 7
13 11 6
13 12 38
14 0 12
14 1 24
14 2 2
14 3 27
14 4 18
14 5 13
14 6 55
14 7 11
14 8 1
14 9 21
14 10 33
14 11 5
14 12 7
14 13 6
15 0 27
15 1 47
15 2 4
15 3 58
15 4 55
15 5 13
15 6 45
15 7 1
15 8 49
15 9 56
15 10 44
15 11 45
15 12 55
15 13 36
15 14 44
16 0 41
16 1 1
16 2 7
16 3 1
16 4 47
16 5 8
16 6 34
16 7 31
16 8 21
16 9 28
16 10 51
16 11 18
16 12 23
16 13 56
16 14 48
16 15 33
17 0 6
17 1 28
17 2 10
17 3 60
17 4 18
17 5 27
17 6 42
17 7 45
17 8 59
17 9 54
17 10 7
17 11 47
17 12 55
17 13 16
17 14 58
17 15 34
17 16 30
18 0 57
18 1 28
18 2 43
18 3 59
18 4 5
18 5 48
18 6 19
18 7 45
18 8 56
18 9 32
18 10 51
18 11 25
18 12 5
18 13 13
18 14 15
18 15 55
18 16 14
18 17 13
19 0 56
19 1 38
19 2 20
19 3 12
19 4 48
19 5 35
19 6 22
19 7 10
19 8 20
19 9 53
19 10 49
19 11 45
19 12 34
19 13 15
19 14 2
19 15 8
19 16 14
19 17 9
19 18 34
20 0 51
20 1 37
20 2 44
20 3 29
20 4 25
20 5 60
20 6 4
20 7 18
20 8 26
20 9 20
20 10 44
20 11 40
20 12 36
20 13 49
20 14 22
20 15 19
20 16 1
20 17 37
20 18 16
20 19 49
21 0 16
21 1 33
21 2 25
21 3 54
21 4 36
21 5 47
21 6 25
21 7 51
21 8 3
21 9 43
21 10 13
21 11 47
21 12 7
21 13 39
21 14 43
21 15 5
21 16 43
21 17 54
21 18 27
21 19 16
21 20 8
22 0 25
22 1 3
22 2 52
22 3 32
22 4 7
22 5 9
22 6 26
22 7 4
22 8 37
22 9 6
22 10 28
22 11 37
22 12 41
22 13 16
22 14 57
22 15 46
22 16 1
22 17 13
22 18 54
22 19 39
22 20 3
22 21 51
23 0 58
23 1 35
23 2 35
23 3 6
23 4 3
23 5 36
23 6 2
23 7 17
23 8 34
23 9 40
23 10 7
23 11 38
23 12 39
23 13 41
23 14 14
23 15 60
23 16 28
23 17 56
23 18 19
23 19 37
23 20 36
23 21 25
23 22 35
24 0 18
24 1 4
24 2 12
24 3 23
24 4 45
24 5 11
24 6 56
24 7 16
24 8 35
24 9 51
24 10 54
24 11 57
24 12 23
24 13 33
24 14 20
24 15 45
24 16 47
24 17 14
24 18 3
24 19 38
24 20 36
24 21 5
24 22 21
24 23 2
25 0 13
25 1 31
25 2 52
25 3 57
25 4 60
25 5 10
25 6 58
25 7 14
25 8 26
25 9 32
25 10 30
25 11 48
25 12 54
25 13 43
25 14 26
25 15 15
25 16 48
25 17 17
25 18 24
25 19 18
25 20 9
25 21 8
25 22 13
25 23 48
25 24 52
26 0 12
26 1 60
26 2 17
26 3 24
26 4 60
26 5 21
26 6 28
26 7 28
26 8 33
26 9 50
26 10 59
26 11 2
26 12 14
26 13 36
26 14 16
26 15 44
26 16 25
26 17 60
26 18 32
26 19 28
26 20 4
26 21 17
26 22 8
26 23 43
26 24 43
26 25 12
27 0 39
27 1 8
27 2 19
27 3 41
27 4 50
27 5 60
27 6 57
27 7 58
27 8 56
27 9 55
27 10 33
27 11 8
27 12 1
27 13 51
27 14 53
27 15 31
27 16 36
27 17 9
27 18 35
27 19 51
27 20 31
27 21 25
27 22 58
27 23 47
27 24 46
27 25 8
27 26 50
28 0 17
28 1 52
28 2 32
28 3 45
28 4 7
28 5 1
28 6 14
28 7 2
28 8 18
28 9 60
28 10 23
28 11 59
28 12 12
28 13 39
28 14 25
28 15 44
28 16 49
28 17 15
28 18 51
28 19 46
28 20 25
28 21 19
28 22 28
28 23 14
28 24 19
28 25 34
28 26 54
28 27 16
29 0 43
29 1 4
29 2 34
29 3 17
29 4 51
29 5 47
29 6 21
29 7 37
29 8 48
29 9 58
29 10 34
29 11 14
29 12 47
29 13 25
29 14 54
29 15 19
29 16 41
29 17 11
29 18 41
29 19 54
29 20 10
29 21 24
29 22 29
29 23 51
29 24 50
29 25 24
29 26 50
29 27 55
29 28 52
30 0 12
30 1 47
30 2 43
30 3 30
30 4 58
30 5 21
30 6 46
30 7 7
30 8 6
30 9 15
30 10 48
30 11 41
30 12 11
30 13 25
30 14 22
30 15 5
30 16 44
30 17 9
30 18 7
30 19 17
30 20 28
30 21 55
30 22 20
30 23 42
30 24 47
30 25 10
30 26 47
30 27 52
30 28 32
30 29 48
31 0 41
31 1 31
31 2 3
31 3 56
31 4 34
31 5 39
31 6 28
31 7 6
31 8 19
31 9 57
31 10 27
31 11 19
31 12 30
31 13 6
31 14 57
31 15 25
31 16 56
31 17 21
31 18 39
31 19 33
31 20 6
31 21 44
31 22 12
31 23 52
31 24 43
31 25 37
31 26 29
31 27 54
31 28 43
31 29 32
31 30 13
32 0 45
32 1 24
32 2 35
32 3 1
32 4 31
32 5 27
32 6 34
32 7 35
32 8 29
32 9 12
32 10 57
32 11 25
32 12 43
32 13 11
32 14 12
32 15 38
32 16 26
32 17 2
32 18 2
32 19 26
32 20 14
32 21 11
32 22 36
32 23 22
32 24 52
32 25 43
32 26 55
32 27 45
32 28 13
32 29 49
32 30 43
32 31 24
33 0 50
33 1 16
33 2 37
33 3 54
33 4 60
33 5 55
33 6 33
33 7 52
33 8 13
33 9 22
33 10 31
33 11 5
33 12 36
33 13 7
33 14 8
33 15 22
33 16 40
33 17 53
33 18 50
33 19 29
33 20 15
33 21 56
33 22 26
33 23 44
33 24 47
33 25 29
33 26 25
33 27 35
33 28 15
33 29 49
33 30 14
33 31 58
33 32 3
34 0 22
34 1 30
34 2 50
34 3 10
34 4 56
34 5 53
34 6 59
34 7 5
34 8 3
34 9 51
34 10 31
34 11 19
34 12 53
34 13 55
34 14 26
34 15 41
34 16 20
34 17 48
34 18 52
34 19 26
34 20 8
34 21 43
34 22 25
34 23 8
34 24 14
34 25 45
34 26 16
34 27 44
34 28 34
34 29 54
34 30 15
34 31 18
34 32 13
34 33 29
35 0 54
35 1 13
35 2 30
35 3 46
35 4 8
35 5 4
35 6 17
35 7 3
35 8 22
35 9 17
35 10 56
35 11 36
35 12 51
35 13 26
35 14 23
35 15 22
35 16 48
35 17 33
35 18 20
35 19 55
35 20 24
35 21 2
35 22 41
35 23 24
35 24 56
35 25 4
35 26 30
35 27 28
35 28 36
35 29 20
35 30 14
35 31 8
35 32 36
35 33 44
35 34 4
36 0 26
36 1 42
36 2 14
36 3 26
36 4 1
36 5 19
36 6 6
36 7 8
36 8 14
36 9 56
36 10 16
36 11 47
36 12 18
36 13 13
36 14 16
36 15 20
36 16 31
36 17 4
36 18 18
36 19 42
36 20 47
36 21 60
36 22 18
36 23 14
36 24 45
36 25 54
36 26 53
36 27 21
36 28 28
36 29 26
36 30 45
36 31 11
36 32 7
36 33 43
36 34 53
36 35 41
37 0 38
37 1 42
37 2 34
37 3 13
37 4 53
37 5 47
37 6 60
37 7 32
37 8 49
37 9 16
37 10 14
37 11 44
37 12 2
37 13 45
37 14 29
37 15 43
37 16 12
37 17 47
37 18 14
37 19 5
37 20 38
37 21 6
37 22 36
37 23 28
37 24 54
37 25 23
37 26 44
37 27 54
37 28 10
37 29 25
37 30 32
37 31 38
37 32 41
37 33 57
37 34 42
37 35 26
37 36 42
38 0 49
38 1 57
38 2 20
38 3 35
38 4 55
38 5 3
38 6 29
38 7 7
38 8 14
38 9 49
38 10 22
38 11 57
38 12 2
38 13 22
38 14 34
38 15 3
38 16 45
38 17 10
38 18 2
38 19 21
38 20 29
38 21 42
38 22 26
38 23 59
38 24 46
38 25 58
38 26 48
38 27 57
38 28 12
38 29 47
38 30 58
38 31 56
38 32 20
38 33 54
38 34 15
38 35 45
38 36 26
38 37 20
39 0 25
39 1 27
39 2 18
39 3 21
39 4 56
39 5 18
39 6 22
39 7 1
39 8 57
39 9 4
39 10 31
39 11 17
39 12 36
39 13 13
39 14 21
39 15 10
39 16 36
39 17 6
39 18 60
39 19 12
39 20 10
39 21 12
39 22 47
39 23 22
39 24 33
39 25 60
39 26 1
39 27 11
39 28 10
39 29 59
39 30 52
39 31 47
39 32 44
39 33 56
39 34 14
39 35 55
39 36 57
39 37 33
39 38 57
40 0 15
40 1 46
40 2 54
40 3 44
40 4 41
40 5 15
40 6 25
40 7 39
40 8 13
40 9 24
40 10 13
40 11 7
40 12 38
40 13 39
40 14 16
40 15 45
40 16 21
40 17 57
40 18 26
40 19 29
40 20 45
40 21 19
40 22 28
40 23 41
40 24 9
40 25 35
40 26 35
40 27 24
40 28 10
40 29 39
40 30 1
40 31 53
40 32 2
40 33 26
40 34 58
40 35 55
40 36 15
40 37 14
40 38 27
40 39 45
41 0 31
41 1 29
41 2 15
41 3 28
41 4 59
41 5 42
41 6 1
41 7 26
41 8 59
41 9 30
41 10 60
41 11 47
41 12 7
41 13 50
41 14 60
41 15 13
41 16 17
41 17 33
41 18 39
41 19 45
41 20 38
41 21 35
41 22 10
41 23 49
41 24 8
41 25 36
41 26 52
41 27 19
41 28 55
41 29 29
41 30 23
41 31 7
41 32 24
41 33 47
41 34 16
41 35 14
41 36 19
41 37 51
41 38 27
41 39 56
41 40 51
42 0 41
42 1 41
42 2 59
42 3 27
42 4 16
42 5 57
42 6 16
42 7 10
42 8 16
42 9 38
42 10 22
42 11 44
42 12 5
42 13 31
42 14 29
42 15 17
42 16 54
42 17 28
42 18 25
42 19 48
42 20 5
42 21 55
42 22 57
42 23 47
42 24 59
42 25 39
42 26 1
42 27 9
42 28 9
42 29 39
42 30 42
42 31 1
42 32 35
42 33 42
42 34 38
42 35 34
42 36 11
42 37 22
42 38 33
42 39 1
42 40 50
42 41 15
43 0 57
43 1 49
43 2 52
43 3 46
43 4 11
43 5 4
43 6 19
43 7 53
43 8 30
43 9 13
43 10 52
43 11 26
43 12 40
43 13 21
43 14 60
43 15 3
43 16 17
43 17 26
43 18 48
43 19 55
43 20 3
43 21 57
43 22 27
43 23 36
43 24 23
43 25 59
43 26 32
43 27 55
43 28 18
43 29 11
43 30 26
43 31 34
43 32 24
43 33 10
43 34 27
43 35 47
43 36 20
43 37 7
43 38 46
43 39 34
43 40 9
43 41 41
43 42 54
44 0 57
44 1 26
44 2 26
44 3 40
44 4 25
44 5 59
44 6 35
44 7 35
44 8 42
44 9 39
44 10 37
44 11 18
44 12 14
44 13 24
44 14 60
44 15 24
44 16 1
44 17 45
44 18 16
44 19 50
44 20 57
44 21 22
44 22 6
44 23 50
44 24 39
44 25 3
44 26 59
44 27 39
44 28 18
44 29 50
44 30 57
44 31 2
44 32 13
44 33 42
44 34 10
44 35 4
44 36 2
44 37 3
44 38 31
44 39 32
44 40 42
44 41 8
44 42 27
44 43 19
45 0 48
45 1 1
45 2 36
45 3 19
45 4 47
45 5 43
45 6 10
45 7 55
45 8 8
45 9 40
45 10 55
45 11 53
45 12 39
45 13 34
45 14 17
45 15 23
45 16 12
45 17 20
45 18 3
45 19 29
45 20 46
45 21 46
45 22 26
45 23 15
45 24 36
45 25 55
45 26 42
45 27 18
45 28 52
45 29 34
45 30 29
45 31 28
45 32 54
45 33 11
45 34 37
45 35 59
45 36 6
45 37 5
45 38 3
45 39 13
45 40 16
45 41 58
45 42 58
45 43 59
45 44 24
46 0 54
46 1 40
46 2 53
46 3 50
46 4 24
46 5 20
46 6 15
46 7 51
46 8 14
46 9 58
46 10 37
46 11 12
46 12 2
46 13 8
46 14 49
46 15 26
46 16 59
46 17 16
46 18 3
46 19 32
46 20 2
46 21 41
46 22 39
46 23 40
46 24 21
46 25 24
46 26 26
46 27 52
46 28 12
46 29 42
46 30 28
46 31 47
46 32 17
46 33 53
46 34 9
46 35 10
46 36 12
46 37 30
46 38 45
46 39 35
46 40 37
46 41 17
46 42 35
46 43 21
46 44 28
46 45 26
47 0 45
47 1 56
47 2 57
47 3 59
47 4 8
47 5 9
47 6 23
47 7 17
47 8 46
47 9 60
47 10 9
47 11 5
47 12 60
47 13 58
47 14 8
47 15 40
47 16 14
47 17 1
47 18 44
47 19 47
47 20 47
47 21 39
47 22 51
47 23 35
47 24 19
47 25 54
47 26 51
47 27 49
47 28 57
47 29 4
47 30 22
47 31 53
47 32 6
47 33 17
47 34 5
47 35 25
47 36 13
47 37 41
47 38 20
47 39 47
47 40 24
47 41 27
47 42 49
47 43 20
47 44 34
47 45 4
47 46 57
48 0 34
48 1 14
48 2 41
48 3 35
48 4 22
48 5 30
48 6 12
48 7 60
48 8 3
48 9 41
48 10 36
48 11 47
48 12 54
48 13 38
48 14 49
48 15 30
48 16 21
48 17 38
48 18 46
48 19 33
48 20 4
48 21 37
48 22 34
48 23 41
48 24 30
48 25 53
48 26 16
48 27 54
48 28 51
48 29 36
48 30 9
48 31 41
48 32 16
48 33 60
48 34 47
48 35 59
48 36 50
48 37 39
48 38 16
48 39 19
48 40 47
48 41 36
48 42 25
48 43 46
48 44 48
48 45 59
48 46 39
48 47 50
49 0 27
49 1 32
49 2 4
49 3 39
49 4 4
49 5 8
49 6 48
49 7 37
49 8 41
49 9 15
49 10 39
49 11 40
49 12 45
49 13 49
49 14 47
49 15 49
49 16 52
49 17 10
49 18 42
49 19 30
49 20 35
49 21 49
49 22 53
49 23 4
49 24 9
49 25 18
49 26 57
49 27 8
49 28 45
49 29 30
49 30 9
49 31 1
49 32 30
49 33 49
49 34 19
49 35 19
49 36 19
49 37 30
49 38 54
49 39 5
49 40 31
49 41 48
49 42 42
49 43 40
49 44 37
49 45 49
49 46 7
49 47 48
49 48 39
50 0 4
50 1 19
50 2 35
50 3 14
50 4 16
50 5 38
50 6 33
50 7 59
50 8 4
50 9 52
50 10 46
50 11 60
50 12 16
50 13 31
50 14 56
50 15 34
50 16 57
50 17 8
50 18 39
50 19 28
50 20 54
50 21 4
50 22 25
50 23 17
50 24 41
50 25 33
50 26 14
50 27 36
50 28 33
50 29 53
50 30 34
50 31 14
50 32 10
50 33 59
50 34 6
50 35 44
50 36 32
50 37 44
50 38 44
50 39 41
50 40 44
50 41 44
50 42 38
50 43 47
50 44 28
50 45 34
50 46 13
50 47 31
50 48 21
50 49 38
51 0 26
51 1 57
51 2 35
51 3 4
51 4 50
51 5 14
51 6 19
51 7 18
51 8 5
51 9 21
51 10 51
51 11 29
51 12 7
51 13 29
51 14 43
51 15 36
51 16 55
51 17 15
51 18 56
51 19 5
51 20 45
51 21 11
51 22 15
51 23 13
51 24 17
51 25 28
51 26 58
51 27 46
51 28 48
51 29 1
51 30 54
51 31 28
51 32 44
51 33 2
51 34 20
51 35 21
51 36 60
51 37 44
51 38 2
51 39 8
51 40 45
51 41 6
51 42 60
51 43 58
51 44 56
51 45 38
51 46 8
51 47 35
51 48 23
51 49 23
51 50 5
52 0 11
52 1 25
52 2 59
52 3 9
52 4 1
52 5 24
52 6 27
52 7 52
52 8 17
52 9 26
52 10 36
52 11 31
52 12 51
52 13 20
52 14 47
52 15 59
52 16 5
52 17 30
52 18 13
52 19 32
52 20 16
52 21 12
52 22 44
52 23 15
52 24 7
52 25 40
52 26 16
52 27 40
52 28 57
52 29 54
52 30 1
52 31 28
52 32 21
52 33 45
52 34 16
52 35 13
52 36 54
52 37 19
52 38 17
52 39 56
52 40 59
52 41 13
52 42 39
52 43 38
52 44 37
52 45 21
52 46 14
52 47 2
52 48 8
52 49 26
52 50 18
52 51 26
53 0 5
53 1 17
53 2 44
53 3 19
53 4 27
53 5 32
53 6 20
53 7 52
53 8 20
53 9 22
53 10 29
53 11 55
53 12 33
53 13 32
53 14 48
53 15 50
53 16 49
53 17 35
53 18 40
53 19 14
53 20 31
53 21 9
53 22 30
53 23 46
53 24 11
53 25 40
53 26 16
53 27 3
53 28 8
53 29 56
53 30 44
53 31 52
53 32 2
53 33 22
53 34 16
53 35 59
53 36 12
53 37 56
53 38 16
53 39 6
53 40 60
53 41 51
53 42 31
53 43 11
53 44 34
53 45 51
53 46 4
53 47 39
53 48 48
53 49 29
53 50 29
53 51 37
53 52 18
54 0 40
54 1 22
54 2 3
54 3 41
54 4 36
54 5 43
54 6 20
54 7 33
54 8 37
54 9 28
54 10 52
54 11 48
54 12 45
54 13 12
54 14 31
54 15 29
54 16 55
54 17 54
54 18 8
54 19 55
54 20 60
54 21 20
54 22 28
54 23 1
54 24 34
54 25 17
54 26 4
54 27 7
54 28 31
54 29 51
54 30 13
54 31 34
54 32 5
54 33 30
54 34 45
54 35 56
54 36 17
54 37 25
54 38 22
54 39 36
54 40 15
54 41 43
54 42 5
54 43 14
54 44 19
54 45 8
54 46 22
54 47 10
54 48 46
54 49 36
54 50 37
54 51 44
54 52 38
54 53 37
55 0 55
55 1 17
55 2 56
55 3 22
55 4 47
55 5 15
55 6 60
55 7 7
55 8 5
55 9 23
55 10 16
55 11 7
55 12 48
55 13 26
55 14 21
55 15 13
55 16 23
55 17 24
55 18 12
55 19 54
55 20 7
55 21 25
55 22 56
55 23 27
55 24 30
55 25 1
55 26 30
55 27 13
55 28 39
55 29 52
55 30 15
55 31 36
55 32 11
55 33 42
55 34 2
55 35 3
55 36 17
55 37 54
55 38 33
55 39 56
55 40 35
55 41 43
55 42 3
55 43 28
55 44 19
55 45 29
55 46 19
55 47 57
55 48 50
55 49 56
55 50 55
55 51 48
55 52 14
55 53 43
55 54 7
56 0 18
56 1 7
56 2 41
56 3 27
56 4 10
56 5 17
56 6 28
56 7 34
56 8 4
56 9 59
56 10 26
56 11 23
56 12 51
56 13 26
56 14 3
56 15 41
56 16 14
56 17 4
56 18 25
56 19 49
56 20 54
56 21 12
56 22 9
56 23 12
56 24 35
56 25 1
56 26 7
56 27 37
56 28 26
56 29 47
56 30 45
56 31 27
56 32 40
56 33 3
56 34 46
56 35 41
56 36 27
56 37 4
56 38 32
56 39 2
56 40 21
56 41 34
56 42 37
56 43 28
56 44 9
56 45 56
56 46 2
56 47 13
56 48 19
56 49 15
56 50 17
56 51 3
56 52 49
56 53 32
56 54 19
56 55 4
